sat
(:max-memory         17.95
 :memory             17.95
 :nlsat-conflicts    1
 :nlsat-propagations 13
 :nlsat-stages       5
 :num-allocs         18276
 :rlimit-count       1290
 :time               0.00
 :total-time         0.01)
